93 51 
71 72 
51 83 
16 62 
49 61 
63 54 
50 14 
28 61 
72 4 
77 82 
10 32 
51 33 
37 37 
25 62 
53 37 
1 46 
41 24 
18 44 
7 34 
58 8 
95 21 
63 98 
87 43 
59 11 
99 36 
94 61 
20 45 
95 58 
35 72 
20 88 
61 73 
86 2 
98 5 
98 57 
91 56 
66 39 
29 29 
37 16 
24 96 
80 23 
84 74 
85 5 
71 32 
15 6 
4 35 
46 65 
60 33 
20 10 
90 18 
68 33 
